SAT
-1 -75 -74 -73 71 -31 40 53 27 -35 70 13 -26 -72 24 -34 -32 -41 23 50 12 15 14 66 67 58 5 37 17 25 44 -59 -21 -45 54 -11 -4 20 -16 42 -61 -3 8 30 55 -49 -38 48 -6 -43 68 -7 -60 39 -36 56 -69 -33 46 57 -65 -18 -9 10 -63 -28 29 -22 52 -64 -51 2 -19 -62 -47 0
